20
20
500
483
419
366
302
299
278
259
249
246
211
162
145
137
133
102
90
71
65
44
90	490
152	552
207	607
260	660
308	708
428	828
433	833
488	888
942	1342
980	1380
176	576
209	609
252	652
439	839
453	853
484	884
554	954
595	995
837	1237
853	1253
